
Gurobi 7.0.2 (linux64) logging started Thu Jun  8 12:34:31 2017

Changed value of parameter logfile to result/NEIS-20170608T1110/scenario_CHP-elec-0.4500.log
   Prev: gurobi.log  Default: 
Optimize a model with 1059933 rows, 937229 columns and 3961670 nonzeros
Coefficient statistics:
  Matrix range     [8e-04, 1e+05]
  Objective range  [1e+00, 1e+00]
  Bounds range     [0e+00, 0e+00]
  RHS range        [3e-03, 1e+05]

Concurrent LP optimizer: primal simplex, dual simplex, and barrier
Showing barrier log only...

Presolve removed 580114 rows and 635954 columns
Presolve time: 2.95s
Presolved: 479819 rows, 301275 columns, 1383529 nonzeros

Ordering time: 0.42s

Barrier statistics:
 Dense cols : 22
 AA' NZ     : 1.918e+06
 Factor NZ  : 6.933e+06 (roughly 400 MBytes of memory)
 Factor Ops : 1.616e+08 (less than 1 second per iteration)
 Threads    : 22

                  Objective                Residual
Iter       Primal          Dual         Primal    Dual     Compl     Time
   0   3.74496398e+11 -2.71538292e+11  8.79e+02 6.66e+03  2.06e+07     4s
   1   2.95596885e+11 -9.41512335e+10  6.46e+02 1.38e+04  6.75e+06     5s
   2   2.88627766e+11 -6.53723093e+10  6.37e+02 6.79e+03  5.94e+06     5s
   3   1.92881068e+11 -9.02681206e+10  4.16e+02 2.18e+02  3.94e+06     6s
   4   5.47758067e+09 -7.68642192e+10  6.08e+00 6.20e+00  1.60e+05     7s
   5   7.99032496e+08 -7.21167384e+09  5.92e-01 9.49e-06  1.28e+04     7s
   6   2.90651275e+08 -2.48656940e+09  1.21e-01 3.05e-06  3.91e+03     8s
   7   1.20588688e+08 -5.63193381e+08  1.66e-02 2.22e-06  9.25e+02     8s
   8   1.16816394e+08 -3.33104036e+08  1.58e-02 9.75e-07  6.08e+02     9s
   9   5.91583431e+07 -7.88386921e+07  4.44e-03 3.86e-07  1.85e+02     9s
  10   4.54807085e+07 -1.97975161e+07  1.61e-03 1.60e-07  8.76e+01    10s
  11   2.88591550e+07 -1.41473989e+06  7.19e-04 8.38e-08  4.06e+01    10s
  12   2.08004628e+07  8.94339421e+05  3.97e-04 6.10e-08  2.67e+01    11s
  13   1.74011545e+07  3.75316085e+06  2.65e-04 4.53e-08  1.83e+01    11s
  14   1.63042712e+07  5.94326745e+06  2.26e-04 2.76e-08  1.39e+01    12s
  15   1.56481582e+07  6.46332120e+06  1.99e-04 2.11e-08  1.23e+01    12s
  16   1.47470438e+07  7.76276756e+06  1.68e-04 1.30e-08  9.36e+00    12s
  17   1.31597953e+07  8.80274717e+06  1.07e-04 7.90e-09  5.84e+00    13s
  18   1.28941111e+07  9.48940069e+06  9.64e-05 4.69e-09  4.56e+00    14s
  19   1.23704555e+07  9.71318506e+06  7.55e-05 2.69e-09  3.56e+00    14s
  20   1.19803361e+07  9.89328920e+06  5.97e-05 1.94e-09  2.80e+00    15s
  21   1.16288722e+07  9.97029207e+06  4.53e-05 2.00e-09  2.22e+00    15s
  22   1.12918103e+07  1.02370345e+07  3.15e-05 9.64e-10  1.41e+00    16s
  23   1.11782582e+07  1.02773463e+07  2.71e-05 9.20e-10  1.21e+00    16s
  24   1.10460101e+07  1.03214042e+07  2.17e-05 4.66e-10  9.71e-01    17s
  25   1.09045741e+07  1.03636440e+07  1.63e-05 4.55e-10  7.25e-01    17s
  26   1.08448388e+07  1.03884761e+07  1.39e-05 4.15e-10  6.12e-01    18s
  27   1.07992186e+07  1.04017565e+07  1.20e-05 3.36e-10  5.33e-01    18s
  28   1.07737879e+07  1.04135844e+07  1.11e-05 5.82e-10  4.83e-01    19s
  29   1.07447307e+07  1.04198060e+07  9.86e-06 2.55e-10  4.36e-01    19s
  30   1.07026645e+07  1.04437776e+07  8.15e-06 6.26e-10  3.47e-01    20s
  31   1.06885532e+07  1.04476185e+07  7.57e-06 7.57e-10  3.23e-01    20s
  32   1.06512446e+07  1.04639986e+07  6.21e-06 1.16e-09  2.51e-01    21s
  33   1.06308920e+07  1.04728812e+07  5.39e-06 2.47e-09  2.12e-01    22s
  34   1.06160310e+07  1.04766839e+07  4.80e-06 2.51e-09  1.87e-01    22s
  35   1.06105738e+07  1.04785262e+07  4.59e-06 2.36e-09  1.77e-01    23s
  36   1.06025628e+07  1.04799134e+07  4.27e-06 2.01e-09  1.64e-01    23s
  37   1.05879774e+07  1.04813950e+07  3.69e-06 2.55e-09  1.43e-01    23s
  38   1.05752369e+07  1.04840307e+07  3.17e-06 2.63e-09  1.22e-01    24s
  39   1.05726059e+07  1.04847313e+07  3.06e-06 2.64e-09  1.18e-01    24s
  40   1.05670250e+07  1.04872668e+07  2.86e-06 2.47e-09  1.07e-01    25s
  41   1.05551625e+07  1.04884621e+07  2.39e-06 2.84e-09  8.94e-02    26s
  42   1.05528071e+07  1.04888163e+07  2.30e-06 2.47e-09  8.58e-02    26s
  43   1.05491224e+07  1.04897145e+07  2.15e-06 1.88e-09  7.96e-02    27s
  44   1.05408299e+07  1.04898963e+07  1.82e-06 1.71e-09  6.83e-02    27s
  45   1.05333465e+07  1.04905213e+07  1.51e-06 1.11e-09  5.74e-02    28s
  46   1.05273191e+07  1.04910716e+07  1.28e-06 3.42e-10  4.86e-02    28s
  47   1.05264021e+07  1.04915765e+07  1.24e-06 7.13e-10  4.67e-02    29s
  48   1.05198247e+07  1.04920187e+07  9.91e-07 2.84e-10  3.73e-02    29s
  49   1.05151329e+07  1.04930062e+07  8.06e-07 3.78e-10  2.97e-02    30s
  50   1.05134999e+07  1.04932554e+07  7.40e-07 4.29e-10  2.71e-02    30s
  51   1.05122097e+07  1.04934252e+07  6.88e-07 2.91e-10  2.52e-02    31s
  52   1.05110704e+07  1.04935498e+07  6.40e-07 6.40e-10  2.35e-02    31s
  53   1.05094566e+07  1.04937283e+07  5.75e-07 9.46e-10  2.11e-02    32s
  54   1.05069224e+07  1.04938819e+07  4.78e-07 3.32e-09  1.75e-02    32s
  55   1.05058344e+07  1.04939630e+07  4.32e-07 2.11e-09  1.59e-02    33s
  56   1.05054725e+07  1.04941727e+07  4.17e-07 6.11e-10  1.51e-02    33s
  57   1.05036920e+07  1.04943026e+07  3.45e-07 1.82e-10  1.26e-02    34s
  58   1.05023478e+07  1.04943779e+07  2.92e-07 3.42e-10  1.07e-02    34s
  59   1.05016373e+07  1.04945256e+07  2.62e-07 4.00e-10  9.53e-03    35s
  60   1.05012407e+07  1.04945358e+07  2.46e-07 5.82e-10  8.99e-03    35s
  61   1.05007236e+07  1.04946172e+07  2.25e-07 9.31e-10  8.19e-03    36s
  62   1.04993242e+07  1.04946801e+07  1.71e-07 1.14e-09  6.23e-03    36s
  63   1.04984338e+07  1.04947516e+07  1.33e-07 9.31e-10  4.94e-03    36s
  64   1.04980638e+07  1.04949317e+07  1.18e-07 4.66e-10  4.20e-03    37s
  65   1.04978731e+07  1.04949511e+07  1.10e-07 1.16e-10  3.92e-03    38s
  66   1.04977264e+07  1.04949662e+07  1.05e-07 1.26e-10  3.70e-03    38s
  67   1.04974475e+07  1.04950050e+07  9.33e-08 3.20e-10  3.27e-03    39s
  68   1.04971938e+07  1.04950232e+07  8.27e-08 5.09e-11  2.91e-03    39s
  69   1.04970642e+07  1.04950555e+07  7.71e-08 7.28e-11  2.69e-03    39s
  70   1.04964278e+07  1.04950744e+07  5.09e-08 3.78e-10  1.81e-03    40s
  71   1.04961949e+07  1.04951088e+07  4.08e-08 2.36e-11  1.46e-03    40s
  72   1.04958147e+07  1.04951377e+07  2.52e-08 1.75e-10  9.08e-04    41s
  73   1.04955740e+07  1.04951671e+07  1.57e-08 3.22e-09  5.45e-04    41s
  74   1.04954842e+07  1.04951725e+07  1.21e-08 1.97e-08  4.18e-04    42s
  75   1.04953638e+07  1.04951751e+07  1.68e-08 2.95e-08  2.53e-04    43s
  76   1.04953340e+07  1.04951762e+07  1.23e-06 1.82e-08  2.11e-04    44s
  77   1.04953190e+07  1.04951775e+07  1.62e-06 2.33e-08  1.89e-04    44s
  78   1.04952797e+07  1.04951799e+07  1.14e-06 5.92e-09  1.34e-04    45s
  79   1.04952568e+07  1.04951817e+07  3.33e-06 1.25e-08  1.01e-04    46s
  80   1.04952388e+07  1.04951821e+07  2.50e-06 2.11e-08  7.59e-05    47s
  81   1.04952326e+07  1.04951826e+07  4.17e-06 5.62e-09  6.69e-05    47s
  82   1.04952326e+07  1.04951826e+07  1.12e-05 5.70e-09  6.69e-05    48s
  83   1.04952326e+07  1.04951826e+07  1.12e-05 5.47e-09  6.68e-05    49s
  84   1.04952152e+07  1.04951818e+07  6.51e-06 1.24e-10  4.47e-05    50s
  85   1.04951987e+07  1.04951828e+07  2.80e-06 4.01e-09  2.12e-05    51s
  86   1.04951987e+07  1.04951828e+07  6.01e-06 4.05e-09  2.12e-05    53s
  87   1.04951987e+07  1.04951828e+07  6.27e-06 4.03e-09  2.12e-05    53s
  88   1.04951987e+07  1.04951828e+07  6.26e-06 1.89e-09  2.12e-05    54s
  89   1.04951986e+07  1.04951828e+07  6.26e-06 1.11e-09  2.12e-05    55s
  90   1.04951986e+07  1.04951828e+07  8.23e-06 9.31e-10  2.12e-05    56s
  91   1.04951986e+07  1.04951828e+07  8.23e-06 1.57e-09  2.12e-05    57s
  92   1.04951986e+07  1.04951828e+07  8.23e-06 1.02e-09  2.12e-05    58s
  93   1.04951986e+07  1.04951828e+07  8.23e-06 7.13e-10  2.12e-05    59s
  94   1.04951986e+07  1.04951828e+07  7.07e-06 1.54e-09  2.11e-05    60s
  95   1.04951986e+07  1.04951828e+07  7.01e-06 1.19e-09  2.11e-05    61s

Barrier performed 95 iterations in 60.56 seconds
Sub-optimal termination - objective 1.04952797e+07

Crossover log...

  206060 DPushes remaining with DInf 0.0000000e+00                61s
   76250 DPushes remaining with DInf 0.0000000e+00                65s
   74084 DPushes remaining with DInf 0.0000000e+00                71s
   72279 DPushes remaining with DInf 0.0000000e+00                76s
   70835 DPushes remaining with DInf 0.0000000e+00                80s
   69030 DPushes remaining with DInf 0.0000000e+00                86s
   67947 DPushes remaining with DInf 0.0000000e+00                90s
   66503 DPushes remaining with DInf 0.0000000e+00                95s
   65059 DPushes remaining with DInf 0.0000000e+00               101s
   63976 DPushes remaining with DInf 0.0000000e+00               105s
   62532 DPushes remaining with DInf 0.0000000e+00               110s
   61088 DPushes remaining with DInf 0.0000000e+00               115s
   52064 DPushes remaining with DInf 0.0000000e+00               120s
   47575 DPushes remaining with DInf 0.0000000e+00               125s
   44868 DPushes remaining with DInf 0.0000000e+00               130s
   40766 DPushes remaining with DInf 0.0000000e+00               136s
   37517 DPushes remaining with DInf 0.0000000e+00               141s
   35351 DPushes remaining with DInf 0.0000000e+00               146s
   33546 DPushes remaining with DInf 0.0000000e+00               150s
   28492 DPushes remaining with DInf 0.0000000e+00               155s
   23799 DPushes remaining with DInf 0.0000000e+00               160s
   17662 DPushes remaining with DInf 0.0000000e+00               166s
   15135 DPushes remaining with DInf 0.0000000e+00               170s
   12608 DPushes remaining with DInf 0.0000000e+00               176s
   10803 DPushes remaining with DInf 0.0000000e+00               181s
    9720 DPushes remaining with DInf 0.0000000e+00               186s
    8637 DPushes remaining with DInf 0.0000000e+00               190s
    7190 DPushes remaining with DInf 0.0000000e+00               196s
    6086 DPushes remaining with DInf 0.0000000e+00               200s
    4898 DPushes remaining with DInf 0.0000000e+00               206s
       0 DPushes remaining with DInf 1.9406732e-09               208s

  208768 PPushes remaining with PInf 5.5340086e-02               208s
   11050 PPushes remaining with PInf 5.3737269e-01               210s
       0 PPushes remaining with PInf 1.4831523e-04               212s

  Push phase complete: Pinf 1.4831523e-04, Dinf 1.3020472e+06    212s

Iteration    Objective       Primal Inf.    Dual Inf.      Time
  409512    1.0495185e+07   0.000000e+00   1.302047e+06    212s
  411438    1.0495184e+07   0.000000e+00   0.000000e+00    215s

Solved with barrier
Solved in 411438 iterations and 214.68 seconds
Optimal objective  1.049518398e+07
